Cars = 1..200;
Options = 1..5;
Classes = 1..23;
sequenceMinCapacity = [0, 0, 0, 0, 0];
sequenceMaxCapacity = [1, 2, 1, 2, 1];
sequenceSize = [2, 3, 3, 5, 5];
numOrdered = [3, 4, 12, 3, 19, 2, 3, 7, 2, 1, 26, 35, 2, 6, 7, 1, 1, 2, 48, 2, 2, 9, 3];
classHasOption = [| true, false,  true,  true, false
                  | true, false, false, false,  true
                  | true,  true, false, false, false
                  | true,  true,  true, false, false
                  |false, false, false, false,  true
                  | true,  true, false, false,  true
                  | true,  true, false,  true, false
                  |false,  true, false,  true, false
                  |false, false,  true, false,  true
                  | true, false,  true, false,  true
                  |false, false,  true, false, false
                  |false, false, false,  true, false
                  |false,  true,  true, false,  true
                  |false, false,  true,  true, false
                  | true, false,  true, false, false
                  | true, false, false,  true,  true
                  |false, false,  true,  true,  true
                  |false, false, false,  true,  true
                  |false,  true, false, false, false
                  |false,  true,  true, false, false
                  |false,  true, false, false,  true
                  | true, false, false, false, false
                  | true, false, false,  true, false|];
optionOrdering = [5, 3, 4, 1, 2];
